NAME: line_15_11
TYPE: TSP
COMMENT: srandom_15_11
DIMENSION: 15
EDGE_WEIGHT_TYPE: EUC_2D
NODE_COORD_SECTION
1 2479 501
2 386 2159
3 226 117
4 11 4110
5 2451 1378
6 1565 2323
7 4292 4511
8 3648 51
9 1300 1040
10 4067 851
11 851 2175
12 2638 2308
13 879 524
14 3597 1233
15 983 4847
